p cnf 30 130
1 2 3 0
-1 -2 0
-1 -3 0
-2 -3 0
-1 -4 0
-2 -5 0
-3 -6 0
-1 -7 0
-2 -8 0
-3 -9 0
-1 -10 0
-2 -11 0
-3 -12 0
4 5 6 0
-4 -5 0
-4 -6 0
-5 -6 0
-4 -1 0
-5 -2 0
-6 -3 0
-4 -13 0
-5 -14 0
-6 -15 0
-4 -25 0
-5 -26 0
-6 -27 0
7 8 9 0
-7 -8 0
-7 -9 0
-8 -9 0
-7 -1 0
-8 -2 0
-9 -3 0
-7 -19 0
-8 -20 0
-9 -21 0
-7 -22 0
-8 -23 0
-9 -24 0
10 11 12 0
-10 -11 0
-10 -12 0
-11 -12 0
-10 -1 0
-11 -2 0
-12 -3 0
-10 -16 0
-11 -17 0
-12 -18 0
-10 -28 0
-11 -29 0
-12 -30 0
13 14 15 0
-13 -14 0
-13 -15 0
-14 -15 0
-13 -4 0
-14 -5 0
-15 -6 0
-13 -16 0
-14 -17 0
-15 -18 0
-13 -22 0
-14 -23 0
-15 -24 0
16 17 18 0
-16 -17 0
-16 -18 0
-17 -18 0
-16 -10 0
-17 -11 0
-18 -12 0
-16 -13 0
-17 -14 0
-18 -15 0
-16 -19 0
-17 -20 0
-18 -21 0
19 20 21 0
-19 -20 0
-19 -21 0
-20 -21 0
-19 -7 0
-20 -8 0
-21 -9 0
-19 -16 0
-20 -17 0
-21 -18 0
-19 -25 0
-20 -26 0
-21 -27 0
22 23 24 0
-22 -23 0
-22 -24 0
-23 -24 0
-22 -7 0
-23 -8 0
-24 -9 0
-22 -13 0
-23 -14 0
-24 -15 0
-22 -28 0
-23 -29 0
-24 -30 0
25 26 27 0
-25 -26 0
-25 -27 0
-26 -27 0
-25 -4 0
-26 -5 0
-27 -6 0
-25 -19 0
-26 -20 0
-27 -21 0
-25 -28 0
-26 -29 0
-27 -30 0
28 29 30 0
-28 -29 0
-28 -30 0
-29 -30 0
-28 -10 0
-29 -11 0
-30 -12 0
-28 -22 0
-29 -23 0
-30 -24 0
-28 -25 0
-29 -26 0
-30 -27 0
